40
    27    77    52    78    26    63    68    74    44    36    58    77    88    88    80    43    90    63    71    31    14    58    43     1    50    24    89    18    16    64    79    50    59    35    60    68    53    48    60    45
     7     2     1     3     3     4     8     6     3     5     1     2     5     4     4     8     4     3     1     3     5     4     4     4    10     1     4     4     1     6    10     1     7     8     1     9     6     9    10     9
   237  1217  1587  1994  1991  1195  1477  1525   968  1952  2371   822   413  1314  2139  1235   492  2238   755   940   259  1356   635   294   701   295  1559  1768  2369   726  1007  2290  1925   507  2085  1849   606  1743   859  2344
